p cnf 60 284
2 33 7 0
2 33 32 0
2 7 32 0
33 7 32 0
-2 -33 -7 0
-2 -33 -32 0
-2 -7 -32 0
-33 -7 -32 0
7 12 38 39 0
-7 -12 0
-7 -38 0
-7 -39 0
-12 -38 0
-12 -39 0
-38 -39 0
12 45 17 0
12 45 44 0
12 17 44 0
45 17 44 0
-12 -45 -17 0
-12 -45 -44 0
-12 -17 -44 0
-45 -17 -44 0
22 57 27 0
22 57 56 0
22 27 56 0
57 27 56 0
-22 -57 -27 0
-22 -57 -56 0
-22 -27 -56 0
-57 -27 -56 0
-8 -13 -39 -40 0
8 13 0
8 39 0
8 40 0
13 39 0
13 40 0
39 40 0
14 47 19 0
14 47 46 0
14 19 46 0
47 19 46 0
-14 -47 -19 0
-14 -47 -46 0
-14 -19 -46 0
-47 -19 -46 0
-19 -24 -52 -53 0
19 24 0
19 52 0
19 53 0
24 52 0
24 53 0
52 53 0
10 42 15 0
10 42 41 0
10 15 41 0
42 15 41 0
-10 -42 -15 0
-10 -42 -41 0
-10 -15 -41 0
-42 -15 -41 0
-15 -20 -47 -48 0
15 20 0
15 47 0
15 48 0
20 47 0
20 48 0
47 48 0
20 54 25 0
20 54 53 0
20 25 53 0
54 25 53 0
-20 -54 -25 0
-20 -54 -53 0
-20 -25 -53 0
-54 -25 -53 0
-25 -30 -59 -60 0
25 30 0
25 59 0
25 60 0
30 59 0
30 60 0
59 60 0
-1 31 0
1 -31 0
-31 -6 -37 0
-31 6 37 0
31 -6 37 0
31 6 -37 0
-37 -11 -43 0
-37 11 43 0
37 -11 43 0
37 11 -43 0
-43 -16 -49 0
-43 16 49 0
43 -16 49 0
43 16 -49 0
-49 -21 -55 0
-49 21 55 0
49 -21 55 0
49 21 -55 0
-55 26 0
55 -26 0
-2 -32 -1 0
-2 32 1 0
2 -32 1 0
2 32 -1 0
-32 -7 -38 0
-32 -7 -6 0
-32 -38 -6 0
-7 -38 -6 0
-32 7 38 6 0
32 -7 38 6 0
32 7 -38 6 0
32 7 38 -6 0
-38 -12 -44 0
-38 -12 -11 0
-38 -44 -11 0
-12 -44 -11 0
-38 12 44 11 0
38 -12 44 11 0
38 12 -44 11 0
38 12 44 -11 0
-44 -17 -50 0
-44 -17 -16 0
-44 -50 -16 0
-17 -50 -16 0
-44 17 50 16 0
44 -17 50 16 0
44 17 -50 16 0
44 17 50 -16 0
-50 -22 -56 0
-50 -22 -21 0
-50 -56 -21 0
-22 -56 -21 0
-50 22 56 21 0
50 -22 56 21 0
50 22 -56 21 0
50 22 56 -21 0
-56 -27 -26 0
-56 27 26 0
56 -27 26 0
56 27 -26 0
-3 -33 -2 0
-3 33 2 0
3 -33 2 0
3 33 -2 0
-33 -8 -39 0
-33 -8 -7 0
-33 -39 -7 0
-8 -39 -7 0
-33 8 39 7 0
33 -8 39 7 0
33 8 -39 7 0
33 8 39 -7 0
-39 -13 -45 0
-39 -13 -12 0
-39 -45 -12 0
-13 -45 -12 0
-39 13 45 12 0
39 -13 45 12 0
39 13 -45 12 0
39 13 45 -12 0
-45 -18 -51 0
-45 -18 -17 0
-45 -51 -17 0
-18 -51 -17 0
-45 18 51 17 0
45 -18 51 17 0
45 18 -51 17 0
45 18 51 -17 0
-51 -23 -57 0
-51 -23 -22 0
-51 -57 -22 0
-23 -57 -22 0
-51 23 57 22 0
51 -23 57 22 0
51 23 -57 22 0
51 23 57 -22 0
-57 -28 -27 0
-57 28 27 0
57 -28 27 0
57 28 -27 0
-4 -34 -3 0
-4 34 3 0
4 -34 3 0
4 34 -3 0
-34 -9 -40 0
-34 -9 -8 0
-34 -40 -8 0
-9 -40 -8 0
-34 9 40 8 0
34 -9 40 8 0
34 9 -40 8 0
34 9 40 -8 0
-40 -14 -46 0
-40 -14 -13 0
-40 -46 -13 0
-14 -46 -13 0
-40 14 46 13 0
40 -14 46 13 0
40 14 -46 13 0
40 14 46 -13 0
-46 -19 -52 0
-46 -19 -18 0
-46 -52 -18 0
-19 -52 -18 0
-46 19 52 18 0
46 -19 52 18 0
46 19 -52 18 0
46 19 52 -18 0
-52 -24 -58 0
-52 -24 -23 0
-52 -58 -23 0
-24 -58 -23 0
-52 24 58 23 0
52 -24 58 23 0
52 24 -58 23 0
52 24 58 -23 0
-58 -29 -28 0
-58 29 28 0
58 -29 28 0
58 29 -28 0
-5 -35 -4 0
-5 35 4 0
5 -35 4 0
5 35 -4 0
-35 -10 -41 0
-35 -10 -9 0
-35 -41 -9 0
-10 -41 -9 0
-35 10 41 9 0
35 -10 41 9 0
35 10 -41 9 0
35 10 41 -9 0
-41 -15 -47 0
-41 -15 -14 0
-41 -47 -14 0
-15 -47 -14 0
-41 15 47 14 0
41 -15 47 14 0
41 15 -47 14 0
41 15 47 -14 0
-47 -20 -53 0
-47 -20 -19 0
-47 -53 -19 0
-20 -53 -19 0
-47 20 53 19 0
47 -20 53 19 0
47 20 -53 19 0
47 20 53 -19 0
-53 -25 -59 0
-53 -25 -24 0
-53 -59 -24 0
-25 -59 -24 0
-53 25 59 24 0
53 -25 59 24 0
53 25 -59 24 0
53 25 59 -24 0
-59 -30 -29 0
-59 30 29 0
59 -30 29 0
59 30 -29 0
-36 5 0
36 -5 0
-36 -42 -10 0
-36 42 10 0
36 -42 10 0
36 42 -10 0
-42 -48 -15 0
-42 48 15 0
42 -48 15 0
42 48 -15 0
-48 -54 -20 0
-48 54 20 0
48 -54 20 0
48 54 -20 0
-54 -60 -25 0
-54 60 25 0
54 -60 25 0
54 60 -25 0
-60 30 0
60 -30 0
1 -2 -3 -4 -5 -6 7 -8 -9 -10 -11 12 -13 -14 -15 16 -17 18 -19 -20 -21 22 23 -24 -25 -26 27 -28 -29 -30 31 -32 33 34 35 -36 -37 38 -39 40 41 42 43 -44 45 46 47 -48 49 50 -51 -52 53 54 -55 -56 -57 58 59 -60 0
